NAME : eil101.tsp
COMMENT : Optimal tour for eil101.tsp
TYPE : TOUR
DIMENSION : 101
Total Length: 690.9994200238591
TOUR_SECTION
1
50
33
81
9
35
71
65
66
20
51
30
32
90
63
64
49
36
47
46
8
45
83
18
89
6
94
13
95
96
99
59
92
97
87
2
57
42
14
44
91
100
37
98
93
85
16
61
5
60
84
17
86
38
43
15
41
22
75
56
23
67
39
25
55
4
54
24
29
34
78
79
3
68
80
77
76
12
26
21
72
74
73
40
58
53
101
28
27
52
7
82
48
19
11
62
88
31
10
70
69
-1
EOF
